(set-logic QF_S)
(declare-fun var0 () String)
(assert (str.in.re var0 (re.++ (re.+ (re.* (str.to.re "0"))) (re.++ (re.* (re.+ (str.to.re "11"))) (re.++ (re.+ (re.* (str.to.re "2"))) (re.++ (re.union (re.+ (str.to.re "33")) (re.+ (str.to.re "4"))) (re.++ (re.+ (re.+ (str.to.re "5"))) (re.++ (re.+ (re.* (str.to.re "666"))) (re.++ (re.+ (re.+ (str.to.re "77"))) (re.++ (re.+ (re.* (str.to.re "888"))) (re.++ (re.* (re.+ (str.to.re "99"))) (re.++ (re.union (re.* (str.to.re "aaa")) (re.* (str.to.re "b"))) (re.++ (re.union (re.* (str.to.re "c")) (re.* (str.to.re "ddd"))) (re.++ (re.+ (re.* (str.to.re "e"))) (re.++ (re.+ (re.* (str.to.re "f"))) (re.++ (re.+ (re.+ (str.to.re "g"))) (re.++ (re.+ (re.union (str.to.re "hh") (str.to.re "ii"))) (re.++ (re.union (re.union (str.to.re "jj") (str.to.re "kk")) (re.union (str.to.re "ll") (str.to.re "m"))) (re.++ (re.+ (re.+ (str.to.re "nnn"))) (re.++ (re.* (re.union (str.to.re "o") (str.to.re "p"))) (re.++ (re.union (re.+ (str.to.re "qqq")) (re.+ (str.to.re "rrr"))) (re.++ (re.* (re.* (str.to.re "s"))) (re.++ (re.+ (re.+ (str.to.re "t"))) (re.++ (re.+ (re.+ (str.to.re "u"))) (re.++ (re.* (re.union (str.to.re "vvv") (str.to.re "ww"))) (re.++ (re.+ (re.+ (str.to.re "xx"))) (re.++ (re.union (re.* (str.to.re "yyy")) (re.* (str.to.re "zz"))) (re.++ (re.+ (re.* (str.to.re "AAA"))) (re.++ (re.+ (re.* (str.to.re "B"))) (re.++ (re.+ (re.union (str.to.re "CCC") (str.to.re "D"))) (re.++ (re.* (re.+ (str.to.re "EEE"))) (re.++ (re.+ (re.union (str.to.re "FF") (str.to.re "GGG"))) (re.++ (re.+ (re.union (str.to.re "H") (str.to.re "II"))) (re.++ (re.* (re.+ (str.to.re "JJ"))) (re.++ (re.+ (re.* (str.to.re "KK"))) (re.++ (re.union (re.union (str.to.re "LL") (str.to.re "MMM")) (re.union (str.to.re "N") (str.to.re "OOO"))) (re.++ (re.* (re.union (str.to.re "PP") (str.to.re "QQQ"))) (re.++ (re.union (re.union (str.to.re "RRR") (str.to.re "SS")) (re.union (str.to.re "TT") (str.to.re "UU"))) (re.++ (re.* (re.union (str.to.re "V") (str.to.re "WW"))) (re.++ (re.* (re.* (str.to.re "XX"))) (re.++ (re.+ (re.* (str.to.re "YY"))) (re.++ (re.* (re.+ (str.to.re "Z"))) (re.++ (re.union (re.+ (str.to.re "!")) (re.+ (str.to.re """"""))) (re.++ (re.union (re.+ (str.to.re "##")) (re.+ (str.to.re "$"))) (re.++ (re.* (re.+ (str.to.re "%"))) (re.++ (re.* (re.union (str.to.re "&&&") (str.to.re "''"))) (re.++ (re.+ (re.union (str.to.re "(((") (str.to.re ")"))) (re.++ (re.union (re.+ (str.to.re "**")) (re.+ (str.to.re "+"))) (re.++ (re.union (re.* (str.to.re ",,,")) (re.* (str.to.re "---"))) (re.++ (re.union (re.+ (str.to.re ".")) (re.+ (str.to.re "///"))) (re.++ (re.union (re.* (str.to.re ":")) (re.* (str.to.re ";;;"))) (re.++ (re.union (re.union (str.to.re "<<") (str.to.re "==")) (re.union (str.to.re ">>>") (str.to.re "?"))) (re.++ (re.+ (re.union (str.to.re "@") (str.to.re "[[["))) (re.++ (re.* (re.+ (str.to.re "\\\\\\"))) (re.++ (re.union (re.+ (str.to.re "]]")) (re.+ (str.to.re "^^^"))) (re.++ (re.+ (re.* (str.to.re "_"))) (re.++ (re.* (re.+ (str.to.re "```"))) (re.++ (re.+ (re.* (str.to.re "{"))) (re.++ (re.+ (re.* (str.to.re "||"))) (re.++ (re.union (re.* (str.to.re "}}")) (re.* (str.to.re "~"))) (re.++ (re.union (re.* (str.to.re "0")) (re.* (str.to.re "111"))) (re.++ (re.* (re.union (str.to.re "2") (str.to.re "3"))) (re.++ (re.* (re.+ (str.to.re "4"))) (re.++ (re.union (re.* (str.to.re "55")) (re.* (str.to.re "666"))) (re.++ (re.union (re.* (str.to.re "77")) (re.* (str.to.re "88"))) (re.++ (re.* (re.union (str.to.re "9") (str.to.re "aaa"))) (re.++ (re.union (re.+ (str.to.re "bb")) (re.+ (str.to.re "c"))) (re.++ (re.union (re.union (str.to.re "d") (str.to.re "ee")) (re.union (str.to.re "ff") (str.to.re "g"))) (re.++ (re.+ (re.* (str.to.re "hhh"))) (re.++ (re.* (re.+ (str.to.re "iii"))) (re.++ (re.union (re.+ (str.to.re "jjj")) (re.+ (str.to.re "kkk"))) (re.++ (re.union (re.+ (str.to.re "l")) (re.+ (str.to.re "m"))) (re.++ (re.+ (re.union (str.to.re "nn") (str.to.re "o"))) (re.++ (re.* (re.union (str.to.re "pp") (str.to.re "q"))) (re.++ (re.union (re.union (str.to.re "r") (str.to.re "s")) (re.union (str.to.re "tt") (str.to.re "uu"))) (re.++ (re.+ (re.+ (str.to.re "vv"))) (re.++ (re.union (re.* (str.to.re "w")) (re.* (str.to.re "x"))) (re.++ (re.* (re.+ (str.to.re "y"))) (re.++ (re.union (re.+ (str.to.re "z")) (re.+ (str.to.re "AAA"))) (re.++ (re.* (re.union (str.to.re "BBB") (str.to.re "CC"))) (re.++ (re.* (re.+ (str.to.re "DDD"))) (re.++ (re.union (re.union (str.to.re "EE") (str.to.re "F")) (re.union (str.to.re "GGG") (str.to.re "HHH"))) (re.++ (re.union (re.+ (str.to.re "I")) (re.+ (str.to.re "JJJ"))) (re.++ (re.union (re.+ (str.to.re "KK")) (re.+ (str.to.re "LLL"))) (re.++ (re.+ (re.union (str.to.re "MM") (str.to.re "N"))) (re.++ (re.union (re.+ (str.to.re "O")) (re.+ (str.to.re "PPP"))) (re.++ (re.union (re.+ (str.to.re "QQQ")) (re.+ (str.to.re "R"))) (re.++ (re.+ (re.* (str.to.re "S"))) (re.++ (re.* (re.+ (str.to.re "TTT"))) (re.++ (re.+ (re.* (str.to.re "UU"))) (re.++ (re.* (re.+ (str.to.re "VV"))) (re.++ (re.* (re.+ (str.to.re "WW"))) (re.++ (re.* (re.+ (str.to.re "X"))) (re.++ (re.union (re.+ (str.to.re "YY")) (re.+ (str.to.re "ZZ"))) (re.++ (re.union (re.union (str.to.re "!!") (str.to.re """""""")) (re.union (str.to.re "##") (str.to.re "$"))) (re.++ (re.+ (re.union (str.to.re "%%") (str.to.re "&"))) (re.++ (re.union (re.* (str.to.re "'")) (re.* (str.to.re "("))) (re.++ (re.* (re.* (str.to.re ")))"))) (re.++ (re.* (re.union (str.to.re "*") (str.to.re "+"))) (re.++ (re.* (re.union (str.to.re ",") (str.to.re "---"))) (re.++ (re.+ (re.* (str.to.re "."))) (re.++ (re.+ (re.+ (str.to.re "//"))) (re.++ (re.union (re.+ (str.to.re ":")) (re.+ (str.to.re ";;"))) (re.++ (re.union (re.union (str.to.re "<<<") (str.to.re "==")) (re.union (str.to.re ">>>") (str.to.re "???"))) (re.++ (re.+ (re.union (str.to.re "@@@") (str.to.re "[["))) (re.++ (re.* (re.union (str.to.re "\\\\\\") (str.to.re "]]]"))) (re.++ (re.+ (re.* (str.to.re "^"))) (re.++ (re.+ (re.+ (str.to.re "___"))) (re.++ (re.+ (re.union (str.to.re "`") (str.to.re "{"))) (re.++ (re.* (re.* (str.to.re "|"))) (re.++ (re.* (re.* (str.to.re "}"))) (re.++ (re.+ (re.+ (str.to.re "~~"))) (re.++ (re.+ (re.+ (str.to.re "000"))) (re.++ (re.* (re.union (str.to.re "11") (str.to.re "222"))) (re.++ (re.* (re.* (str.to.re "33"))) (re.++ (re.+ (re.+ (str.to.re "444"))) (re.++ (re.* (re.+ (str.to.re "555"))) (re.++ (re.union (re.union (str.to.re "66") (str.to.re "77")) (re.union (str.to.re "88") (str.to.re "9"))) (re.++ (re.* (re.+ (str.to.re "aa"))) (re.++ (re.+ (re.union (str.to.re "bbb") (str.to.re "c"))) (re.++ (re.+ (re.union (str.to.re "dd") (str.to.re "e"))) (re.++ (re.union (re.* (str.to.re "fff")) (re.* (str.to.re "gg"))) (re.++ (re.union (re.* (str.to.re "hh")) (re.* (str.to.re "ii"))) (re.++ (re.union (re.* (str.to.re "jjj")) (re.* (str.to.re "kk"))) (re.++ (re.union (re.+ (str.to.re "l")) (re.+ (str.to.re "mmm"))) (re.++ (re.+ (re.+ (str.to.re "nnn"))) (re.++ (re.union (re.union (str.to.re "ooo") (str.to.re "pp")) (re.union (str.to.re "qqq") (str.to.re "rrr"))) (re.++ (re.union (re.union (str.to.re "sss") (str.to.re "tt")) (re.union (str.to.re "u") (str.to.re "vv"))) (re.++ (re.* (re.* (str.to.re "w"))) (re.++ (re.* (re.union (str.to.re "xxx") (str.to.re "y"))) (re.++ (re.+ (re.* (str.to.re "zzz"))) (re.++ (re.* (re.+ (str.to.re "A"))) (re.++ (re.* (re.union (str.to.re "BBB") (str.to.re "CCC"))) (re.++ (re.union (re.+ (str.to.re "DDD")) (re.+ (str.to.re "E"))) (re.++ (re.* (re.union (str.to.re "F") (str.to.re "GG"))) (re.++ (re.+ (re.* (str.to.re "HHH"))) (re.++ (re.+ (re.+ (str.to.re "I"))) (re.++ (re.+ (re.* (str.to.re "JJJ"))) (re.++ (re.* (re.+ (str.to.re "KK"))) (re.++ (re.* (re.* (str.to.re "LL"))) (re.++ (re.* (re.+ (str.to.re "MM"))) (re.++ (re.+ (re.+ (str.to.re "NNN"))) (re.++ (re.* (re.union (str.to.re "O") (str.to.re "PP"))) (re.++ (re.* (re.* (str.to.re "QQ"))) (re.++ (re.* (re.union (str.to.re "RRR") (str.to.re "S"))) (re.++ (re.union (re.union (str.to.re "TTT") (str.to.re "U")) (re.union (str.to.re "V") (str.to.re "WWW"))) (re.++ (re.* (re.union (str.to.re "XXX") (str.to.re "YYY"))) (re.++ (re.+ (re.* (str.to.re "Z"))) (re.++ (re.* (re.* (str.to.re "!!"))) (re.++ (re.* (re.union (str.to.re """""") (str.to.re "###"))) (re.++ (re.* (re.union (str.to.re "$$") (str.to.re "%%"))) (re.++ (re.union (re.* (str.to.re "&&&")) (re.* (str.to.re "'"))) (re.++ (re.union (re.+ (str.to.re "(")) (re.+ (str.to.re ")))"))) (re.++ (re.union (re.union (str.to.re "***") (str.to.re "+")) (re.union (str.to.re ",,,") (str.to.re "--"))) (re.++ (re.* (re.* (str.to.re ".."))) (re.++ (re.union (re.+ (str.to.re "//")) (re.+ (str.to.re ":"))) (re.++ (re.* (re.union (str.to.re ";;;") (str.to.re "<"))) (re.++ (re.+ (re.* (str.to.re "="))) (re.++ (re.union (re.union (str.to.re ">") (str.to.re "?")) (re.union (str.to.re "@") (str.to.re "["))) (re.++ (re.* (re.union (str.to.re "\\") (str.to.re "]]"))) (re.++ (re.+ (re.+ (str.to.re "^^"))) (re.++ (re.* (re.* (str.to.re "___"))) (re.++ (re.union (re.* (str.to.re "`")) (re.* (str.to.re "{{"))) (re.++ (re.* (re.* (str.to.re "|"))) (re.++ (re.union (re.union (str.to.re "}}") (str.to.re "~")) (re.union (str.to.re "00") (str.to.re "1"))) (re.++ (re.+ (re.union (str.to.re "222") (str.to.re "33"))) (re.++ (re.* (re.union (str.to.re "4") (str.to.re "5"))) (re.++ (re.+ (re.+ (str.to.re "666"))) (re.++ (re.* (re.+ (str.to.re "77"))) (re.++ (re.+ (re.+ (str.to.re "888"))) (re.++ (re.* (re.union (str.to.re "99") (str.to.re "aa"))) (re.++ (re.+ (re.* (str.to.re "bbb"))) (re.++ (re.* (re.* (str.to.re "ccc"))) (re.++ (re.+ (re.+ (str.to.re "d"))) (re.++ (re.* (re.+ (str.to.re "eee"))) (re.++ (re.union (re.+ (str.to.re "fff")) (re.+ (str.to.re "gg"))) (re.++ (re.+ (re.union (str.to.re "h") (str.to.re "i"))) (re.++ (re.union (re.+ (str.to.re "jj")) (re.+ (str.to.re "kk"))) (re.++ (re.union (re.* (str.to.re "l")) (re.* (str.to.re "m"))) (re.++ (re.+ (re.* (str.to.re "nn"))) (re.++ (re.union (re.+ (str.to.re "ooo")) (re.+ (str.to.re "pp"))) (re.++ (re.+ (re.union (str.to.re "qqq") (str.to.re "rrr"))) (re.++ (re.* (re.+ (str.to.re "s"))) (re.++ (re.union (re.* (str.to.re "ttt")) (re.* (str.to.re "u"))) (re.++ (re.* (re.* (str.to.re "v"))) (re.++ (re.union (re.union (str.to.re "ww") (str.to.re "x")) (re.union (str.to.re "yyy") (str.to.re "zzz"))) (re.++ (re.union (re.* (str.to.re "A")) (re.* (str.to.re "BB"))) (re.++ (re.+ (re.union (str.to.re "CC") (str.to.re "D"))) (re.++ (re.union (re.union (str.to.re "E") (str.to.re "F")) (re.union (str.to.re "GG") (str.to.re "HHH"))) (re.++ (re.* (re.union (str.to.re "I") (str.to.re "JJ"))) (re.++ (re.union (re.* (str.to.re "KK")) (re.* (str.to.re "LLL"))) (re.++ (re.* (re.* (str.to.re "MMM"))) (re.++ (re.union (re.union (str.to.re "N") (str.to.re "O")) (re.union (str.to.re "PP") (str.to.re "QQ"))) (re.++ (re.+ (re.+ (str.to.re "RRR"))) (re.++ (re.+ (re.union (str.to.re "SS") (str.to.re "T"))) (re.++ (re.union (re.union (str.to.re "U") (str.to.re "V")) (re.union (str.to.re "WWW") (str.to.re "XXX"))) (re.++ (re.+ (re.+ (str.to.re "YY"))) (re.++ (re.union (re.* (str.to.re "ZZZ")) (re.* (str.to.re "!!"))) (re.* (re.union (str.to.re """""""") (str.to.re "##")))))))))))))))))))))))))))))))))))))))))))))))))))))))))))))))))))))))))))))))))))))))))))))))))))))))))))))))))))))))))))))))))))))))))))))))))))))))))))))))))))))))))))))))))))))))))))))))))))))))))
(check-sat)